c Result of efficient AIG-to-CNF conversion using package CNF
p cnf 390 1382
-2 3 -264 -265 267 0
-2 3 264 265 267 0
2 -267 0
2 -264 265 0
2 -3 0
2 264 -265 0
3 4 -172 0
3 -4 172 0
-3 -4 -172 0
-3 4 172 0
4 5 -167 0
4 -5 167 0
-4 -5 -167 0
-4 5 167 0
-5 6 162 0
5 -6 0
5 -162 0
-6 7 157 0
6 -7 0
6 -157 0
-7 8 152 0
7 -8 0
7 -152 0
-8 9 147 0
8 -9 0
8 -147 0
-9 10 142 0
9 -10 0
9 -142 0
-10 11 137 0
10 -11 0
10 -137 0
-11 12 132 0
11 -12 0
11 -132 0
-12 13 127 0
12 -13 0
12 -127 0
-13 14 122 0
13 -14 0
13 -122 0
-14 15 117 0
14 -15 0
14 -117 0
-15 16 112 0
15 -16 0
15 -112 0
-16 17 107 0
16 -17 0
16 -107 0
-17 18 102 0
17 -18 0
17 -102 0
-18 19 97 0
18 -19 0
18 -97 0
-19 20 92 0
19 -20 0
19 -92 0
-20 21 87 0
20 -21 0
20 -87 0
-21 22 78 -83 -86 0
-21 22 78 83 86 0
21 -78 0
21 83 -86 0
21 -22 0
21 -83 86 0
-22 23 69 -74 -77 0
-22 23 69 74 77 0
22 -69 0
22 74 -77 0
22 -23 0
22 -74 77 0
-23 24 60 -65 -68 0
-23 24 60 65 68 0
23 -60 0
23 65 -68 0
23 -24 0
23 -65 68 0
-24 25 51 -56 -59 0
-24 25 51 56 59 0
24 -51 0
24 56 -59 0
24 -25 0
24 -56 59 0
-25 26 42 -47 -50 0
-25 26 42 47 50 0
25 -42 0
25 47 -50 0
25 -26 0
25 -47 50 0
-26 27 33 -38 -41 0
-26 27 33 38 41 0
26 -33 0
26 38 -41 0
26 -27 0
26 -38 41 0
-27 28 29 32 0
-27 28 -29 -32 0
27 -28 0
27 -29 32 0
27 29 -32 0
-28 -356 357 -388 389 0
-28 356 -357 388 -389 0
-28 356 357 388 389 0
-28 -356 -357 -388 -389 0
28 -356 388 0
28 356 -388 0
28 357 -389 0
28 -357 389 0
29 355 -30 0
29 -355 30 0
-29 -355 -30 0
-29 355 30 0
30 -387 31 0
30 387 -31 0
-30 387 31 0
-30 -387 -31 0
-31 388 389 0
31 -388 0
31 -389 0
32 -356 -388 389 0
32 -357 388 -389 0
32 -356 388 -389 0
32 -356 -357 -388 0
-32 356 357 0
-32 356 -388 0
-32 388 389 0
-32 357 -388 -389 0
33 34 -37 0
33 -34 37 0
-33 -34 -37 0
-33 34 37 0
34 354 -35 0
34 -354 35 0
-34 -354 -35 0
-34 354 35 0
35 -386 36 0
35 386 -36 0
-35 386 36 0
-35 -386 -36 0
-36 387 388 389 0
36 -387 0
36 -389 0
36 -388 0
37 -355 -30 0
37 -30 -32 0
37 -355 -32 0
-37 355 32 0
-37 30 32 0
-37 355 30 0
38 353 -39 0
38 -353 39 0
-38 -353 -39 0
-38 353 39 0
39 -385 40 0
39 385 -40 0
-39 385 40 0
-39 -385 -40 0
-40 386 36 0
40 -386 0
40 -36 0
41 -354 -35 0
41 -35 -37 0
41 -354 -37 0
-41 354 37 0
-41 35 37 0
-41 354 35 0
42 43 -46 0
42 -43 46 0
-42 -43 -46 0
-42 43 46 0
43 352 -44 0
43 -352 44 0
-43 -352 -44 0
-43 352 44 0
44 -384 45 0
44 384 -45 0
-44 384 45 0
-44 -384 -45 0
-45 385 40 0
45 -385 0
45 -40 0
46 -353 -39 0
46 -39 -41 0
46 -353 -41 0
-46 353 41 0
-46 39 41 0
-46 353 39 0
47 351 -48 0
47 -351 48 0
-47 -351 -48 0
-47 351 48 0
48 -383 49 0
48 383 -49 0
-48 383 49 0
-48 -383 -49 0
-49 384 45 0
49 -384 0
49 -45 0
50 -352 -44 0
50 -44 -46 0
50 -352 -46 0
-50 352 46 0
-50 44 46 0
-50 352 44 0
51 52 -55 0
51 -52 55 0
-51 -52 -55 0
-51 52 55 0
52 350 -53 0
52 -350 53 0
-52 -350 -53 0
-52 350 53 0
53 -382 54 0
53 382 -54 0
-53 382 54 0
-53 -382 -54 0
-54 383 49 0
54 -383 0
54 -49 0
55 -351 -48 0
55 -48 -50 0
55 -351 -50 0
-55 351 50 0
-55 48 50 0
-55 351 48 0
56 349 -57 0
56 -349 57 0
-56 -349 -57 0
-56 349 57 0
57 -381 58 0
57 381 -58 0
-57 381 58 0
-57 -381 -58 0
-58 382 54 0
58 -382 0
58 -54 0
59 -350 -53 0
59 -53 -55 0
59 -350 -55 0
-59 350 55 0
-59 53 55 0
-59 350 53 0
60 61 -64 0
60 -61 64 0
-60 -61 -64 0
-60 61 64 0
61 348 -62 0
61 -348 62 0
-61 -348 -62 0
-61 348 62 0
62 -380 63 0
62 380 -63 0
-62 380 63 0
-62 -380 -63 0
-63 381 58 0
63 -381 0
63 -58 0
64 -349 -57 0
64 -57 -59 0
64 -349 -59 0
-64 349 59 0
-64 57 59 0
-64 349 57 0
65 347 -66 0
65 -347 66 0
-65 -347 -66 0
-65 347 66 0
66 -379 67 0
66 379 -67 0
-66 379 67 0
-66 -379 -67 0
-67 380 63 0
67 -380 0
67 -63 0
68 -348 -62 0
68 -62 -64 0
68 -348 -64 0
-68 348 64 0
-68 62 64 0
-68 348 62 0
-69 -70 -73 0
-69 70 73 0
69 70 -73 0
69 -70 73 0
70 346 -71 0
70 -346 71 0
-70 -346 -71 0
-70 346 71 0
71 -378 72 0
71 378 -72 0
-71 378 72 0
-71 -378 -72 0
-72 379 67 0
72 -379 0
72 -67 0
73 -347 -66 0
73 -66 -68 0
73 -347 -68 0
-73 347 68 0
-73 66 68 0
-73 347 66 0
74 345 -75 0
74 -345 75 0
-74 -345 -75 0
-74 345 75 0
75 -377 76 0
75 377 -76 0
-75 377 76 0
-75 -377 -76 0
-76 378 72 0
76 -378 0
76 -72 0
77 -346 -71 0
77 -71 -73 0
77 -346 -73 0
-77 346 73 0
-77 71 73 0
-77 346 71 0
-78 -79 -82 0
-78 79 82 0
78 79 -82 0
78 -79 82 0
79 344 -80 0
79 -344 80 0
-79 -344 -80 0
-79 344 80 0
80 -376 81 0
80 376 -81 0
-80 376 81 0
-80 -376 -81 0
-81 377 76 0
81 -377 0
81 -76 0
82 -345 -75 0
82 -75 -77 0
82 -345 -77 0
-82 345 77 0
-82 75 77 0
-82 345 75 0
83 343 -84 0
83 -343 84 0
-83 -343 -84 0
-83 343 84 0
84 -375 85 0
84 375 -85 0
-84 375 85 0
-84 -375 -85 0
-85 376 81 0
85 -376 0
85 -81 0
86 -344 -80 0
86 -80 -82 0
86 -344 -82 0
-86 344 82 0
-86 80 82 0
-86 344 80 0
-87 -88 -91 0
-87 88 91 0
87 88 -91 0
87 -88 91 0
88 342 -89 0
88 -342 89 0
-88 -342 -89 0
-88 342 89 0
89 -374 90 0
89 374 -90 0
-89 374 90 0
-89 -374 -90 0
-90 375 85 0
90 -375 0
90 -85 0
91 -343 -84 0
91 -84 -86 0
91 -343 -86 0
-91 343 86 0
-91 84 86 0
-91 343 84 0
-92 -93 -96 0
-92 93 96 0
92 93 -96 0
92 -93 96 0
93 341 -94 0
93 -341 94 0
-93 -341 -94 0
-93 341 94 0
94 -373 95 0
94 373 -95 0
-94 373 95 0
-94 -373 -95 0
-95 374 90 0
95 -374 0
95 -90 0
96 -342 -89 0
96 -89 -91 0
96 -342 -91 0
-96 342 91 0
-96 89 91 0
-96 342 89 0
-97 -98 -101 0
-97 98 101 0
97 98 -101 0
97 -98 101 0
98 340 -99 0
98 -340 99 0
-98 -340 -99 0
-98 340 99 0
99 -372 100 0
99 372 -100 0
-99 372 100 0
-99 -372 -100 0
-100 373 95 0
100 -373 0
100 -95 0
101 -341 -94 0
101 -94 -96 0
101 -341 -96 0
-101 341 96 0
-101 94 96 0
-101 341 94 0
-102 -103 -106 0
-102 103 106 0
102 103 -106 0
102 -103 106 0
103 339 -104 0
103 -339 104 0
-103 -339 -104 0
-103 339 104 0
104 -371 105 0
104 371 -105 0
-104 371 105 0
-104 -371 -105 0
-105 372 100 0
105 -372 0
105 -100 0
106 -340 -99 0
106 -99 -101 0
106 -340 -101 0
-106 340 101 0
-106 99 101 0
-106 340 99 0
-107 -108 -111 0
-107 108 111 0
107 108 -111 0
107 -108 111 0
108 338 -109 0
108 -338 109 0
-108 -338 -109 0
-108 338 109 0
109 -370 110 0
109 370 -110 0
-109 370 110 0
-109 -370 -110 0
-110 371 105 0
110 -371 0
110 -105 0
111 -339 -104 0
111 -104 -106 0
111 -339 -106 0
-111 339 106 0
-111 104 106 0
-111 339 104 0
-112 -113 -116 0
-112 113 116 0
112 113 -116 0
112 -113 116 0
113 337 -114 0
113 -337 114 0
-113 -337 -114 0
-113 337 114 0
114 -369 115 0
114 369 -115 0
-114 369 115 0
-114 -369 -115 0
-115 370 110 0
115 -370 0
115 -110 0
116 -338 -109 0
116 -109 -111 0
116 -338 -111 0
-116 338 111 0
-116 109 111 0
-116 338 109 0
-117 -118 -121 0
-117 118 121 0
117 118 -121 0
117 -118 121 0
118 336 -119 0
118 -336 119 0
-118 -336 -119 0
-118 336 119 0
119 -368 120 0
119 368 -120 0
-119 368 120 0
-119 -368 -120 0
-120 369 115 0
120 -369 0
120 -115 0
121 -337 -114 0
121 -114 -116 0
121 -337 -116 0
-121 337 116 0
-121 114 116 0
-121 337 114 0
-122 -123 -126 0
-122 123 126 0
122 123 -126 0
122 -123 126 0
123 335 -124 0
123 -335 124 0
-123 -335 -124 0
-123 335 124 0
124 -367 125 0
124 367 -125 0
-124 367 125 0
-124 -367 -125 0
-125 368 120 0
125 -368 0
125 -120 0
126 -336 -119 0
126 -119 -121 0
126 -336 -121 0
-126 336 121 0
-126 119 121 0
-126 336 119 0
-127 -128 -131 0
-127 128 131 0
127 128 -131 0
127 -128 131 0
128 334 -129 0
128 -334 129 0
-128 -334 -129 0
-128 334 129 0
129 -366 130 0
129 366 -130 0
-129 366 130 0
-129 -366 -130 0
-130 367 125 0
130 -367 0
130 -125 0
131 -335 -124 0
131 -124 -126 0
131 -335 -126 0
-131 335 126 0
-131 124 126 0
-131 335 124 0
-132 -133 -136 0
-132 133 136 0
132 133 -136 0
132 -133 136 0
133 333 -134 0
133 -333 134 0
-133 -333 -134 0
-133 333 134 0
134 -365 135 0
134 365 -135 0
-134 365 135 0
-134 -365 -135 0
-135 366 130 0
135 -366 0
135 -130 0
136 -334 -129 0
136 -129 -131 0
136 -334 -131 0
-136 334 131 0
-136 129 131 0
-136 334 129 0
-137 -138 -141 0
-137 138 141 0
137 138 -141 0
137 -138 141 0
138 332 -139 0
138 -332 139 0
-138 -332 -139 0
-138 332 139 0
139 -364 140 0
139 364 -140 0
-139 364 140 0
-139 -364 -140 0
-140 365 135 0
140 -365 0
140 -135 0
141 -333 -134 0
141 -134 -136 0
141 -333 -136 0
-141 333 136 0
-141 134 136 0
-141 333 134 0
-142 -143 -146 0
-142 143 146 0
142 143 -146 0
142 -143 146 0
143 331 -144 0
143 -331 144 0
-143 -331 -144 0
-143 331 144 0
144 -363 145 0
144 363 -145 0
-144 363 145 0
-144 -363 -145 0
-145 364 140 0
145 -364 0
145 -140 0
146 -332 -139 0
146 -139 -141 0
146 -332 -141 0
-146 332 141 0
-146 139 141 0
-146 332 139 0
-147 -148 -151 0
-147 148 151 0
147 148 -151 0
147 -148 151 0
148 330 -149 0
148 -330 149 0
-148 -330 -149 0
-148 330 149 0
149 -362 150 0
149 362 -150 0
-149 362 150 0
-149 -362 -150 0
-150 363 145 0
150 -363 0
150 -145 0
151 -331 -144 0
151 -144 -146 0
151 -331 -146 0
-151 331 146 0
-151 144 146 0
-151 331 144 0
-152 -153 -156 0
-152 153 156 0
152 153 -156 0
152 -153 156 0
153 329 -154 0
153 -329 154 0
-153 -329 -154 0
-153 329 154 0
154 -361 155 0
154 361 -155 0
-154 361 155 0
-154 -361 -155 0
-155 362 150 0
155 -362 0
155 -150 0
156 -330 -149 0
156 -149 -151 0
156 -330 -151 0
-156 330 151 0
-156 149 151 0
-156 330 149 0
-157 -158 -161 0
-157 158 161 0
157 158 -161 0
157 -158 161 0
158 328 -159 0
158 -328 159 0
-158 -328 -159 0
-158 328 159 0
159 -360 160 0
159 360 -160 0
-159 360 160 0
-159 -360 -160 0
-160 361 155 0
160 -361 0
160 -155 0
161 -329 -154 0
161 -154 -156 0
161 -329 -156 0
-161 329 156 0
-161 154 156 0
-161 329 154 0
-162 -163 -166 0
-162 163 166 0
162 163 -166 0
162 -163 166 0
163 327 -164 0
163 -327 164 0
-163 -327 -164 0
-163 327 164 0
164 -359 165 0
164 359 -165 0
-164 359 165 0
-164 -359 -165 0
-165 360 160 0
165 -360 0
165 -160 0
166 -328 -159 0
166 -159 -161 0
166 -328 -161 0
-166 328 161 0
-166 159 161 0
-166 328 159 0
167 168 -171 0
167 -168 171 0
-167 -168 -171 0
-167 168 171 0
168 -326 169 0
168 326 -169 0
-168 326 169 0
-168 -326 -169 0
-169 358 170 0
-169 -358 -170 0
169 -358 170 0
169 358 -170 0
-170 359 165 0
170 -359 0
170 -165 0
171 -327 -164 0
171 -164 -166 0
171 -327 -166 0
-171 327 166 0
-171 164 166 0
-171 327 164 0
172 173 -204 0
172 -173 204 0
-172 -173 -204 0
-172 173 204 0
173 -358 174 0
173 358 -174 0
-173 358 174 0
-173 -358 -174 0
-174 326 175 0
-174 -326 -175 0
174 -326 175 0
174 326 -175 0
-175 327 176 0
175 -327 0
175 -176 0
-176 328 177 0
176 -328 0
176 -177 0
-177 329 178 0
177 -329 0
177 -178 0
-178 330 179 0
178 -330 0
178 -179 0
-179 331 180 0
179 -331 0
179 -180 0
-180 332 181 0
180 -332 0
180 -181 0
-181 333 182 0
181 -333 0
181 -182 0
-182 334 183 0
182 -334 0
182 -183 0
-183 335 184 0
183 -335 0
183 -184 0
-184 336 185 0
184 -336 0
184 -185 0
-185 337 186 0
185 -337 0
185 -186 0
-186 338 187 0
186 -338 0
186 -187 0
-187 339 188 0
187 -339 0
187 -188 0
-188 340 189 0
188 -340 0
188 -189 0
-189 341 190 0
189 -341 0
189 -190 0
-190 342 191 0
190 -342 0
190 -191 0
-191 343 192 0
191 -343 0
191 -192 0
-192 344 193 0
192 -344 0
192 -193 0
-193 345 194 0
193 -345 0
193 -194 0
-194 346 195 0
194 -346 0
194 -195 0
-195 347 196 0
195 -347 0
195 -196 0
-196 348 197 0
196 -348 0
196 -197 0
-197 349 198 0
197 -349 0
197 -198 0
-198 350 199 0
198 -350 0
198 -199 0
-199 351 200 0
199 -351 0
199 -200 0
-200 352 201 0
200 -352 0
200 -201 0
-201 353 202 0
201 -353 0
201 -202 0
-202 354 203 0
202 -354 0
202 -203 0
-203 355 356 357 0
203 -355 0
203 -357 0
203 -356 0
204 -359 -205 0
204 -205 -206 0
204 -359 -206 0
-204 359 206 0
-204 205 206 0
-204 359 205 0
205 -327 176 0
205 327 -176 0
-205 327 176 0
-205 -327 -176 0
206 -360 -207 0
206 -207 -208 0
206 -360 -208 0
-206 360 208 0
-206 207 208 0
-206 360 207 0
207 -328 177 0
207 328 -177 0
-207 328 177 0
-207 -328 -177 0
208 -361 -209 0
208 -209 -210 0
208 -361 -210 0
-208 361 210 0
-208 209 210 0
-208 361 209 0
209 -329 178 0
209 329 -178 0
-209 329 178 0
-209 -329 -178 0
210 -362 -211 0
210 -211 -212 0
210 -362 -212 0
-210 362 212 0
-210 211 212 0
-210 362 211 0
211 -330 179 0
211 330 -179 0
-211 330 179 0
-211 -330 -179 0
212 -363 -213 0
212 -213 -214 0
212 -363 -214 0
-212 363 214 0
-212 213 214 0
-212 363 213 0
213 -331 180 0
213 331 -180 0
-213 331 180 0
-213 -331 -180 0
214 -364 -215 0
214 -215 -216 0
214 -364 -216 0
-214 364 216 0
-214 215 216 0
-214 364 215 0
215 -332 181 0
215 332 -181 0
-215 332 181 0
-215 -332 -181 0
216 -365 -217 0
216 -217 -218 0
216 -365 -218 0
-216 365 218 0
-216 217 218 0
-216 365 217 0
217 -333 182 0
217 333 -182 0
-217 333 182 0
-217 -333 -182 0
218 -366 -219 0
218 -219 -220 0
218 -366 -220 0
-218 366 220 0
-218 219 220 0
-218 366 219 0
219 -334 183 0
219 334 -183 0
-219 334 183 0
-219 -334 -183 0
220 -367 -221 0
220 -221 -222 0
220 -367 -222 0
-220 367 222 0
-220 221 222 0
-220 367 221 0
221 -335 184 0
221 335 -184 0
-221 335 184 0
-221 -335 -184 0
222 -368 -223 0
222 -223 -224 0
222 -368 -224 0
-222 368 224 0
-222 223 224 0
-222 368 223 0
223 -336 185 0
223 336 -185 0
-223 336 185 0
-223 -336 -185 0
224 -369 -225 0
224 -225 -226 0
224 -369 -226 0
-224 369 226 0
-224 225 226 0
-224 369 225 0
225 -337 186 0
225 337 -186 0
-225 337 186 0
-225 -337 -186 0
226 -370 -227 0
226 -227 -228 0
226 -370 -228 0
-226 370 228 0
-226 227 228 0
-226 370 227 0
227 -338 187 0
227 338 -187 0
-227 338 187 0
-227 -338 -187 0
228 -371 -229 0
228 -229 -230 0
228 -371 -230 0
-228 371 230 0
-228 229 230 0
-228 371 229 0
229 -339 188 0
229 339 -188 0
-229 339 188 0
-229 -339 -188 0
230 -372 -231 0
230 -231 -232 0
230 -372 -232 0
-230 372 232 0
-230 231 232 0
-230 372 231 0
231 -340 189 0
231 340 -189 0
-231 340 189 0
-231 -340 -189 0
232 -373 -233 0
232 -233 -234 0
232 -373 -234 0
-232 373 234 0
-232 233 234 0
-232 373 233 0
233 -341 190 0
233 341 -190 0
-233 341 190 0
-233 -341 -190 0
234 -374 -235 0
234 -235 -236 0
234 -374 -236 0
-234 374 236 0
-234 235 236 0
-234 374 235 0
235 -342 191 0
235 342 -191 0
-235 342 191 0
-235 -342 -191 0
236 -375 -237 0
236 -237 -238 0
236 -375 -238 0
-236 375 238 0
-236 237 238 0
-236 375 237 0
237 -343 192 0
237 343 -192 0
-237 343 192 0
-237 -343 -192 0
238 -376 -239 0
238 -239 -240 0
238 -376 -240 0
-238 376 240 0
-238 239 240 0
-238 376 239 0
239 -344 193 0
239 344 -193 0
-239 344 193 0
-239 -344 -193 0
240 -377 -241 0
240 -241 -242 0
240 -377 -242 0
-240 377 242 0
-240 241 242 0
-240 377 241 0
241 -345 194 0
241 345 -194 0
-241 345 194 0
-241 -345 -194 0
242 -378 -243 0
242 -243 -244 0
242 -378 -244 0
-242 378 244 0
-242 243 244 0
-242 378 243 0
243 -346 195 0
243 346 -195 0
-243 346 195 0
-243 -346 -195 0
244 -379 -245 0
244 -245 -246 0
244 -379 -246 0
-244 379 246 0
-244 245 246 0
-244 379 245 0
245 -347 196 0
245 347 -196 0
-245 347 196 0
-245 -347 -196 0
246 -380 -247 0
246 -247 -248 0
246 -380 -248 0
-246 380 248 0
-246 247 248 0
-246 380 247 0
247 -348 197 0
247 348 -197 0
-247 348 197 0
-247 -348 -197 0
248 -381 -249 0
248 -249 -250 0
248 -381 -250 0
-248 381 250 0
-248 249 250 0
-248 381 249 0
249 -349 198 0
249 349 -198 0
-249 349 198 0
-249 -349 -198 0
250 -382 -251 0
250 -251 -252 0
250 -382 -252 0
-250 382 252 0
-250 251 252 0
-250 382 251 0
251 -350 199 0
251 350 -199 0
-251 350 199 0
-251 -350 -199 0
252 -383 -253 0
252 -253 -254 0
252 -383 -254 0
-252 383 254 0
-252 253 254 0
-252 383 253 0
253 -351 200 0
253 351 -200 0
-253 351 200 0
-253 -351 -200 0
254 -384 -255 0
254 -255 -256 0
254 -384 -256 0
-254 384 256 0
-254 255 256 0
-254 384 255 0
255 -352 201 0
255 352 -201 0
-255 352 201 0
-255 -352 -201 0
256 -385 -257 0
256 -257 -258 0
256 -385 -258 0
-256 385 258 0
-256 257 258 0
-256 385 257 0
257 -353 202 0
257 353 -202 0
-257 353 202 0
-257 -353 -202 0
258 -386 -259 0
258 -259 -260 0
258 -386 -260 0
-258 386 260 0
-258 259 260 0
-258 386 259 0
259 -354 203 0
259 354 -203 0
-259 354 203 0
-259 -354 -203 0
260 -387 -261 0
260 -261 -263 0
260 -387 -263 0
-260 387 263 0
-260 261 263 0
-260 387 261 0
261 -355 262 0
261 355 -262 0
-261 355 262 0
-261 -355 -262 0
-262 356 357 0
262 -356 0
262 -357 0
263 356 -357 -389 0
263 -356 357 -388 0
263 356 -357 -388 0
263 -356 -388 -389 0
-263 356 357 0
-263 -356 -357 389 0
-263 -356 388 0
-263 388 389 0
264 -6 162 0
264 6 -162 0
-264 6 162 0
-264 -6 -162 0
-265 -206 -266 0
-265 206 266 0
265 206 -266 0
265 -206 266 0
266 359 -205 0
266 -359 205 0
-266 -359 -205 0
-266 359 205 0
-267 -268 -269 271 275 0
-267 268 269 271 275 0
267 -275 0
267 268 -269 0
267 -271 0
267 -268 269 0
268 -7 157 0
268 7 -157 0
-268 7 157 0
-268 -7 -157 0
-269 -208 -270 0
-269 208 270 0
269 208 -270 0
269 -208 270 0
270 360 -207 0
270 -360 207 0
-270 -360 -207 0
-270 360 207 0
271 -272 273 0
271 272 -273 0
-271 272 273 0
-271 -272 -273 0
272 -8 152 0
272 8 -152 0
-272 8 152 0
-272 -8 -152 0
-273 -210 -274 0
-273 210 274 0
273 210 -274 0
273 -210 274 0
274 361 -209 0
274 -361 209 0
-274 -361 -209 0
-274 361 209 0
-275 -276 -277 279 283 0
-275 276 277 279 283 0
275 -283 0
275 276 -277 0
275 -279 0
275 -276 277 0
276 -9 147 0
276 9 -147 0
-276 9 147 0
-276 -9 -147 0
-277 -212 -278 0
-277 212 278 0
277 212 -278 0
277 -212 278 0
278 362 -211 0
278 -362 211 0
-278 -362 -211 0
-278 362 211 0
279 -280 281 0
279 280 -281 0
-279 280 281 0
-279 -280 -281 0
280 -10 142 0
280 10 -142 0
-280 10 142 0
-280 -10 -142 0
-281 -214 -282 0
-281 214 282 0
281 214 -282 0
281 -214 282 0
282 363 -213 0
282 -363 213 0
-282 -363 -213 0
-282 363 213 0
-283 -284 -285 287 291 0
-283 284 285 287 291 0
283 -291 0
283 284 -285 0
283 -287 0
283 -284 285 0
284 -11 137 0
284 11 -137 0
-284 11 137 0
-284 -11 -137 0
-285 -216 -286 0
-285 216 286 0
285 216 -286 0
285 -216 286 0
286 364 -215 0
286 -364 215 0
-286 -364 -215 0
-286 364 215 0
287 -288 289 0
287 288 -289 0
-287 288 289 0
-287 -288 -289 0
288 -12 132 0
288 12 -132 0
-288 12 132 0
-288 -12 -132 0
-289 -218 -290 0
-289 218 290 0
289 218 -290 0
289 -218 290 0
290 365 -217 0
290 -365 217 0
-290 -365 -217 0
-290 365 217 0
-291 -292 -293 295 299 0
-291 292 293 295 299 0
291 -299 0
291 292 -293 0
291 -295 0
291 -292 293 0
292 -13 127 0
292 13 -127 0
-292 13 127 0
-292 -13 -127 0
-293 -220 -294 0
-293 220 294 0
293 220 -294 0
293 -220 294 0
294 366 -219 0
294 -366 219 0
-294 -366 -219 0
-294 366 219 0
295 -296 297 0
295 296 -297 0
-295 296 297 0
-295 -296 -297 0
296 -14 122 0
296 14 -122 0
-296 14 122 0
-296 -14 -122 0
-297 -222 -298 0
-297 222 298 0
297 222 -298 0
297 -222 298 0
298 367 -221 0
298 -367 221 0
-298 -367 -221 0
-298 367 221 0
-299 -300 -301 303 307 0
-299 300 301 303 307 0
299 -307 0
299 300 -301 0
299 -303 0
299 -300 301 0
300 -15 117 0
300 15 -117 0
-300 15 117 0
-300 -15 -117 0
-301 -224 -302 0
-301 224 302 0
301 224 -302 0
301 -224 302 0
302 368 -223 0
302 -368 223 0
-302 -368 -223 0
-302 368 223 0
303 -304 305 0
303 304 -305 0
-303 304 305 0
-303 -304 -305 0
304 -16 112 0
304 16 -112 0
-304 16 112 0
-304 -16 -112 0
-305 -226 -306 0
-305 226 306 0
305 226 -306 0
305 -226 306 0
306 369 -225 0
306 -369 225 0
-306 -369 -225 0
-306 369 225 0
-307 -308 -309 311 315 0
-307 308 309 311 315 0
307 -315 0
307 308 -309 0
307 -311 0
307 -308 309 0
308 -17 107 0
308 17 -107 0
-308 17 107 0
-308 -17 -107 0
-309 -228 -310 0
-309 228 310 0
309 228 -310 0
309 -228 310 0
310 370 -227 0
310 -370 227 0
-310 -370 -227 0
-310 370 227 0
311 -312 313 0
311 312 -313 0
-311 312 313 0
-311 -312 -313 0
312 -18 102 0
312 18 -102 0
-312 18 102 0
-312 -18 -102 0
-313 -230 -314 0
-313 230 314 0
313 230 -314 0
313 -230 314 0
314 371 -229 0
314 -371 229 0
-314 -371 -229 0
-314 371 229 0
-315 316 317 319 0
-315 -316 -317 319 0
315 -319 0
315 316 -317 0
315 -316 317 0
316 -19 97 0
316 19 -97 0
-316 19 97 0
-316 -19 -97 0
-317 -232 -318 0
-317 232 318 0
317 232 -318 0
317 -232 318 0
318 372 -231 0
318 -372 231 0
-318 -372 -231 0
-318 372 231 0
-319 321 -323 0
-319 -320 324 0
-319 -320 -323 0
-319 321 324 0
319 323 -324 0
319 320 -321 0
320 -20 92 0
320 20 -92 0
-320 20 92 0
-320 -20 -92 0
-321 -234 -322 0
-321 234 322 0
321 234 -322 0
321 -234 322 0
322 373 -233 0
322 -373 233 0
-322 -373 -233 0
-322 373 233 0
323 -21 87 0
323 21 -87 0
-323 21 87 0
-323 -21 -87 0
-324 -236 -325 0
-324 236 325 0
324 236 -325 0
324 -236 325 0
325 374 -235 0
325 -374 235 0
-325 -374 -235 0
-325 374 235 0
-390 0
2 0

